instances/shortest_path/discrete/shortest_path_3_15.kp
2706
100

[7.56246637151702 6.9088140025454905 6.530211228018977 4.573258162618952 12.349856512026578 0.08862704959512839]

[24 100 26 3 8 78]
